100
150
120
119
119
118
118
118
118
116
114
114
113
112
112
110
110
109
108
106
105
104
102
102
101
100
100
99
97
95
92
91
91
88
88
88
87
86
85
85
84
82
82
82
80
80
79
79
78
78
76
75
75
74
73
73
72
72
71
70
70
70
68
67
67
66
66
64
63
62
58
58
58
58
57
55
53
53
53
52
50
50
49
49
44
44
43
43
42
41
41
38
36
36
35
34
34
33
32
32
31
30
